************************************************************************
file with basedata            : mm55_.bas
initial value random generator: 1647245125
************************************************************************
projects                      :  1
jobs (incl. supersource/sink ):  12
horizon                       :  81
RESOURCES
  - renewable                 :  2   R
  - nonrenewable              :  2   N
  - doubly constrained        :  0   D
************************************************************************
PROJECT INFORMATION:
pronr.  #jobs rel.date duedate tardcost  MPM-Time
    1     10      0       12        4       12
************************************************************************
PRECEDENCE RELATIONS:
jobnr.    #modes  #successors   successors
   0        1          3           1   2   3
   1        3          3           4   5   6
   2        3          2           5  10
   3        3          1           5
   4        3          1           9
   5        3          1           7
   6        3          3           7   8  10
   7        3          1           9
   8        3          1          11
   9        3          1          11
  10        3          1          11
  11        1          0        
************************************************************************
REQUESTS/DURATIONS:
jobnr. mode duration  R 1  R 2  R 3  R 4  E(W 1)  E(W 2)  E(W 3)
------------------------------------------------------------------------
  0      1     0       0    0    0    0     0       0       0
  1      1     3       7    6    6    8    39      18      24
  2      1     5       9    9    2    7    90      10      35
  3      1     1       5    7    9    5    12       9       5
  4      1     2      10    5    5    5    30      10      10
  5      1     1       5   10    9    9    15       9       9
  6      1     4       3    5    4    9    32      16      36
  7      1     2       6    3    5    9    18      10      18
  8      1     5       6    9    7    7    75      35      35
  9      1     1       3    6    9    5     9       9       5
 10      1     2       5    4    5    9    18      10      18
 11      1     0       0    0    0    0     0       0       0
************************************************************************
RESOURCEAVAILABILITIES:
  R 1  R 2  R 3
   34   56   65
************************************************************************
RESOURCE LIMITS:
jobnr.  l(R 1)  u(R 1)  l(R 2)  u(R 2)  l(R 3)  u(R 3)
------------------------------------------------------------------------
  0        0       0       0       0       0       0
  1        7      13       3       6       4       8
  2       10      18       1       2       4       7
  3        7      12       5       9       3       5
  4        8      15       3       5       3       5
  5        8      15       5       9       5       9
  6        5       8       2       4       5       9
  7        5       9       3       5       5       9
  8        8      15       4       7       4       7
  9        5       9       5       9       3       5
 10        5       9       3       5       5       9
 11        0       0       0       0       0       0
************************************************************************
SCENARIOS:
------------------------------------------------------------------------
RESOURCE k = 1
s = 1: (0, 28, 70, 13, 23, 14, 46, 15, 57, 8, 13, 0)
s = 2: (0, 26, 113, 11, 34, 18, 24, 22, 55, 8, 13, 0)
s = 3: (0, 26, 102, 10, 41, 10, 46, 11, 64, 12, 19, 0)
s = 4: (0, 54, 65, 7, 32, 29, 17, 20, 129, 11, 20, 0)
s = 5: (0, 54, 127, 16, 32, 15, 25, 21, 47, 7, 26, 0)
s = 6: (0, 37, 69, 12, 20, 15, 33, 13, 72, 9, 15, 0)
s = 7: (0, 40, 65, 11, 26, 9, 41, 15, 78, 7, 21, 0)
s = 8: (0, 61, 87, 16, 26, 20, 37, 17, 73, 9, 29, 0)
s = 9: (0, 47, 79, 13, 38, 22, 34, 13, 60, 10, 11, 0)
s = 10: (0, 48, 94, 9, 22, 14, 44, 24, 68, 7, 14, 0)
s = 11: (0, 25, 79, 11, 34, 13, 49, 14, 44, 11, 13, 0)
s = 12: (0, 34, 73, 10, 31, 24, 30, 28, 94, 6, 25, 0)
s = 13: (0, 52, 52, 14, 33, 10, 29, 15, 78, 14, 13, 0)
s = 14: (0, 46, 90, 11, 25, 13, 45, 21, 58, 7, 22, 0)
s = 15: (0, 48, 132, 11, 40, 14, 31, 29, 73, 12, 11, 0)
s = 16: (0, 42, 80, 11, 18, 11, 34, 26, 129, 10, 31, 0)
s = 17: (0, 30, 151, 12, 52, 18, 32, 12, 83, 8, 19, 0)
s = 18: (0, 51, 58, 12, 46, 15, 54, 14, 47, 14, 14, 0)
s = 19: (0, 37, 97, 10, 28, 11, 48, 14, 58, 6, 20, 0)
s = 20: (0, 41, 116, 9, 21, 18, 23, 16, 54, 8, 19, 0)
s = 21: (0, 37, 112, 10, 23, 13, 29, 29, 62, 11, 11, 0)
s = 22: (0, 26, 96, 10, 32, 22, 19, 21, 109, 11, 15, 0)
s = 23: (0, 30, 134, 11, 47, 18, 24, 22, 105, 9, 14, 0)
s = 24: (0, 35, 68, 8, 24, 11, 44, 11, 64, 6, 26, 0)
s = 25: (0, 33, 82, 15, 27, 16, 39, 23, 77, 11, 11, 0)
s = 26: (0, 29, 62, 9, 32, 25, 20, 23, 58, 10, 17, 0)
s = 27: (0, 34, 74, 15, 32, 17, 22, 19, 66, 11, 18, 0)
s = 28: (0, 23, 75, 10, 43, 21, 35, 22, 79, 6, 21, 0)
s = 29: (0, 36, 75, 18, 29, 18, 25, 11, 95, 7, 13, 0)
s = 30: (0, 46, 118, 19, 31, 18, 32, 14, 69, 12, 21, 0)
s = 31: (0, 33, 72, 13, 30, 8, 39, 14, 122, 6, 14, 0)
s = 32: (0, 35, 84, 16, 29, 22, 44, 11, 63, 12, 16, 0)
s = 33: (0, 30, 100, 15, 39, 15, 29, 16, 87, 9, 15, 0)
s = 34: (0, 26, 78, 9, 31, 23, 54, 14, 86, 7, 19, 0)
s = 35: (0, 35, 75, 11, 36, 24, 22, 14, 52, 7, 19, 0)
s = 36: (0, 52, 139, 12, 28, 18, 21, 15, 76, 12, 21, 0)
s = 37: (0, 43, 102, 12, 24, 13, 24, 22, 72, 10, 13, 0)
s = 38: (0, 62, 65, 16, 17, 12, 28, 12, 75, 5, 17, 0)
s = 39: (0, 46, 129, 17, 18, 14, 29, 22, 63, 5, 20, 0)
s = 40: (0, 31, 69, 12, 35, 11, 31, 13, 68, 9, 18, 0)
s = 41: (0, 50, 80, 15, 39, 13, 40, 25, 82, 14, 19, 0)
s = 42: (0, 48, 144, 12, 30, 14, 45, 18, 45, 8, 18, 0)
s = 43: (0, 69, 79, 7, 38, 19, 35, 14, 92, 9, 17, 0)
s = 44: (0, 27, 71, 15, 35, 14, 27, 19, 99, 8, 23, 0)
s = 45: (0, 45, 106, 15, 26, 22, 38, 19, 58, 7, 14, 0)
s = 46: (0, 44, 94, 15, 28, 12, 52, 14, 57, 15, 21, 0)
s = 47: (0, 28, 113, 17, 36, 16, 32, 14, 74, 12, 26, 0)
s = 48: (0, 44, 51, 9, 37, 24, 23, 28, 90, 8, 23, 0)
s = 49: (0, 34, 73, 22, 46, 14, 35, 22, 75, 10, 24, 0)
s = 50: (0, 47, 77, 13, 26, 20, 48, 23, 49, 9, 23, 0)
s = 51: (0, 53, 78, 9, 19, 24, 38, 20, 41, 8, 22, 0)
s = 52: (0, 44, 111, 17, 23, 17, 30, 25, 52, 8, 21, 0)
s = 53: (0, 59, 76, 9, 28, 15, 19, 18, 91, 10, 23, 0)
s = 54: (0, 29, 126, 8, 46, 15, 38, 18, 54, 11, 11, 0)
s = 55: (0, 43, 123, 16, 24, 15, 41, 17, 78, 13, 18, 0)
s = 56: (0, 48, 63, 14, 47, 17, 49, 22, 64, 8, 19, 0)
s = 57: (0, 40, 124, 15, 43, 20, 25, 14, 60, 11, 20, 0)
s = 58: (0, 48, 77, 10, 22, 21, 29, 19, 92, 12, 17, 0)
s = 59: (0, 26, 87, 14, 27, 13, 25, 19, 99, 12, 16, 0)
s = 60: (0, 35, 91, 9, 26, 18, 20, 20, 70, 8, 23, 0)
s = 61: (0, 52, 66, 12, 19, 13, 53, 28, 72, 8, 25, 0)
s = 62: (0, 26, 98, 12, 18, 17, 48, 34, 107, 8, 15, 0)
s = 63: (0, 27, 101, 11, 35, 16, 27, 21, 56, 9, 26, 0)
s = 64: (0, 27, 95, 8, 49, 16, 21, 15, 46, 7, 16, 0)
s = 65: (0, 37, 77, 9, 23, 19, 31, 11, 90, 15, 25, 0)
s = 66: (0, 37, 49, 16, 22, 15, 53, 10, 93, 9, 12, 0)
s = 67: (0, 26, 120, 19, 25, 19, 33, 22, 74, 9, 17, 0)
s = 68: (0, 26, 108, 11, 24, 10, 21, 12, 65, 8, 18, 0)
s = 69: (0, 62, 105, 13, 39, 14, 28, 17, 101, 11, 18, 0)
s = 70: (0, 46, 61, 12, 34, 15, 28, 20, 63, 10, 26, 0)
s = 71: (0, 37, 79, 16, 21, 23, 59, 11, 53, 10, 18, 0)
s = 72: (0, 59, 59, 12, 37, 14, 29, 16, 82, 11, 14, 0)
s = 73: (0, 41, 75, 11, 25, 18, 45, 20, 127, 10, 21, 0)
s = 74: (0, 62, 102, 11, 31, 13, 32, 25, 125, 9, 13, 0)
s = 75: (0, 34, 80, 13, 25, 23, 38, 17, 107, 8, 21, 0)
s = 76: (0, 27, 101, 8, 28, 18, 32, 24, 45, 11, 14, 0)
s = 77: (0, 34, 95, 19, 22, 25, 22, 17, 47, 12, 28, 0)
s = 78: (0, 30, 50, 12, 33, 20, 23, 13, 105, 5, 22, 0)
s = 79: (0, 62, 70, 16, 18, 14, 39, 26, 43, 8, 20, 0)
s = 80: (0, 46, 61, 12, 34, 26, 40, 17, 73, 13, 18, 0)
s = 81: (0, 31, 96, 13, 31, 11, 35, 11, 54, 10, 19, 0)
s = 82: (0, 26, 70, 16, 27, 13, 41, 14, 57, 14, 21, 0)
s = 83: (0, 25, 66, 13, 24, 10, 38, 13, 54, 7, 17, 0)
s = 84: (0, 33, 61, 11, 31, 25, 24, 20, 107, 15, 22, 0)
s = 85: (0, 58, 76, 18, 16, 22, 29, 20, 73, 7, 19, 0)
s = 86: (0, 33, 82, 11, 28, 17, 30, 28, 88, 16, 21, 0)
s = 87: (0, 44, 92, 13, 29, 12, 29, 20, 47, 6, 15, 0)
s = 88: (0, 26, 69, 8, 26, 20, 41, 18, 83, 17, 17, 0)
s = 89: (0, 31, 107, 10, 28, 12, 25, 16, 46, 10, 23, 0)
s = 90: (0, 26, 96, 12, 23, 13, 52, 13, 92, 8, 18, 0)
s = 91: (0, 42, 71, 8, 36, 19, 39, 22, 78, 6, 10, 0)
s = 92: (0, 51, 95, 10, 28, 13, 21, 20, 76, 8, 28, 0)
s = 93: (0, 73, 64, 12, 27, 15, 38, 17, 81, 17, 18, 0)
s = 94: (0, 43, 76, 13, 30, 17, 32, 27, 64, 11, 16, 0)
s = 95: (0, 45, 88, 12, 29, 16, 27, 15, 83, 10, 17, 0)
s = 96: (0, 39, 107, 20, 39, 12, 24, 18, 51, 11, 14, 0)
s = 97: (0, 40, 72, 12, 33, 14, 23, 27, 103, 11, 13, 0)
s = 98: (0, 59, 72, 8, 53, 20, 28, 19, 62, 7, 13, 0)
s = 99: (0, 44, 94, 9, 43, 12, 23, 21, 101, 5, 20, 0)
s = 100: (0, 35, 76, 7, 30, 10, 37, 17, 72, 12, 15, 0)
s = 101: (0, 38, 82, 12, 41, 26, 28, 12, 90, 8, 24, 0)
s = 102: (0, 39, 103, 10, 23, 15, 53, 10, 49, 10, 15, 0)
s = 103: (0, 44, 154, 13, 23, 19, 27, 13, 54, 6, 24, 0)
s = 104: (0, 39, 53, 13, 44, 17, 34, 28, 105, 9, 15, 0)
s = 105: (0, 33, 102, 10, 26, 14, 26, 14, 69, 8, 22, 0)
s = 106: (0, 27, 117, 9, 30, 15, 34, 21, 62, 13, 25, 0)
s = 107: (0, 38, 73, 13, 23, 18, 26, 16, 96, 7, 20, 0)
s = 108: (0, 30, 65, 13, 18, 10, 25, 17, 54, 7, 24, 0)
s = 109: (0, 27, 67, 12, 30, 12, 33, 25, 93, 9, 26, 0)
s = 110: (0, 35, 101, 18, 20, 16, 40, 29, 51, 7, 20, 0)
s = 111: (0, 38, 64, 11, 32, 20, 31, 20, 54, 8, 26, 0)
s = 112: (0, 36, 98, 21, 23, 9, 31, 29, 49, 6, 20, 0)
s = 113: (0, 31, 60, 17, 28, 21, 45, 17, 107, 9, 16, 0)
s = 114: (0, 28, 87, 19, 29, 11, 41, 21, 58, 14, 17, 0)
s = 115: (0, 39, 108, 12, 33, 11, 43, 27, 70, 11, 24, 0)
s = 116: (0, 33, 124, 9, 21, 10, 27, 27, 61, 9, 22, 0)
s = 117: (0, 24, 96, 10, 51, 23, 23, 13, 51, 12, 19, 0)
s = 118: (0, 34, 120, 10, 28, 19, 21, 16, 65, 6, 19, 0)
s = 119: (0, 43, 70, 16, 18, 17, 52, 18, 63, 7, 16, 0)
s = 120: (0, 23, 107, 15, 23, 13, 27, 15, 87, 10, 25, 0)
s = 121: (0, 42, 83, 10, 21, 13, 19, 10, 78, 8, 31, 0)
s = 122: (0, 45, 81, 9, 28, 16, 29, 19, 67, 5, 27, 0)
s = 123: (0, 35, 88, 11, 55, 13, 36, 21, 57, 8, 20, 0)
s = 124: (0, 52, 106, 13, 26, 15, 32, 13, 83, 9, 13, 0)
s = 125: (0, 25, 71, 14, 27, 15, 26, 26, 71, 16, 15, 0)
s = 126: (0, 44, 80, 13, 34, 15, 18, 18, 87, 9, 24, 0)
s = 127: (0, 36, 108, 12, 32, 13, 30, 19, 112, 7, 12, 0)
s = 128: (0, 23, 73, 18, 25, 11, 39, 16, 106, 15, 10, 0)
s = 129: (0, 39, 91, 12, 28, 14, 25, 10, 74, 12, 22, 0)
s = 130: (0, 33, 176, 18, 33, 13, 24, 20, 83, 7, 19, 0)
s = 131: (0, 56, 94, 8, 24, 17, 24, 11, 108, 15, 19, 0)
s = 132: (0, 31, 105, 13, 27, 13, 33, 20, 60, 11, 11, 0)
s = 133: (0, 40, 101, 14, 22, 13, 19, 18, 80, 12, 20, 0)
s = 134: (0, 45, 69, 13, 26, 12, 42, 21, 62, 8, 21, 0)
s = 135: (0, 31, 104, 17, 32, 16, 19, 11, 64, 13, 14, 0)
s = 136: (0, 33, 69, 15, 38, 20, 39, 12, 123, 17, 15, 0)
s = 137: (0, 41, 122, 13, 22, 12, 44, 13, 52, 11, 22, 0)
s = 138: (0, 32, 113, 10, 17, 14, 31, 19, 79, 6, 26, 0)
s = 139: (0, 40, 71, 20, 39, 19, 25, 27, 114, 7, 17, 0)
s = 140: (0, 39, 120, 12, 29, 15, 41, 14, 87, 9, 14, 0)
s = 141: (0, 26, 63, 7, 20, 13, 44, 18, 96, 7, 24, 0)
s = 142: (0, 33, 86, 10, 32, 16, 37, 19, 57, 13, 14, 0)
s = 143: (0, 37, 124, 9, 23, 13, 26, 20, 53, 15, 17, 0)
s = 144: (0, 36, 66, 12, 37, 16, 39, 32, 75, 8, 19, 0)
s = 145: (0, 31, 66, 16, 18, 10, 29, 18, 58, 8, 19, 0)
s = 146: (0, 56, 126, 12, 44, 10, 23, 11, 79, 11, 16, 0)
s = 147: (0, 22, 97, 10, 26, 10, 30, 13, 55, 11, 26, 0)
s = 148: (0, 45, 78, 13, 34, 12, 33, 17, 71, 12, 13, 0)
s = 149: (0, 59, 86, 9, 31, 19, 47, 23, 95, 11, 21, 0)
s = 150: (0, 27, 77, 16, 25, 26, 36, 21, 52, 9, 27, 0)
s = 151: (0, 42, 107, 7, 31, 24, 39, 14, 106, 5, 21, 0)
s = 152: (0, 31, 97, 10, 42, 15, 51, 17, 77, 7, 11, 0)
s = 153: (0, 28, 67, 12, 20, 18, 36, 20, 47, 7, 18, 0)
s = 154: (0, 68, 113, 11, 43, 12, 39, 20, 94, 7, 12, 0)
s = 155: (0, 66, 51, 15, 19, 10, 30, 12, 85, 14, 20, 0)
s = 156: (0, 53, 47, 10, 32, 15, 35, 14, 62, 8, 13, 0)
s = 157: (0, 23, 67, 12, 16, 15, 30, 20, 71, 10, 16, 0)
s = 158: (0, 38, 84, 17, 33, 10, 24, 16, 112, 13, 18, 0)
s = 159: (0, 44, 116, 19, 34, 13, 27, 19, 78, 9, 16, 0)
s = 160: (0, 26, 47, 9, 34, 13, 34, 13, 63, 9, 23, 0)
s = 161: (0, 36, 88, 10, 40, 17, 28, 13, 69, 10, 15, 0)
s = 162: (0, 51, 76, 13, 30, 14, 41, 20, 53, 8, 10, 0)
s = 163: (0, 26, 143, 9, 30, 19, 26, 11, 55, 11, 13, 0)
s = 164: (0, 39, 96, 10, 24, 17, 55, 17, 86, 8, 15, 0)
s = 165: (0, 42, 76, 14, 34, 11, 41, 25, 63, 8, 27, 0)
s = 166: (0, 28, 126, 14, 24, 16, 19, 17, 71, 11, 14, 0)
s = 167: (0, 36, 92, 11, 34, 11, 38, 26, 67, 7, 29, 0)
s = 168: (0, 36, 70, 11, 54, 15, 36, 16, 79, 7, 15, 0)
s = 169: (0, 33, 67, 8, 31, 11, 20, 18, 84, 7, 25, 0)
s = 170: (0, 40, 69, 15, 19, 10, 19, 12, 115, 6, 17, 0)
s = 171: (0, 45, 93, 9, 23, 22, 33, 17, 73, 15, 12, 0)
s = 172: (0, 54, 85, 8, 29, 14, 32, 32, 53, 8, 17, 0)
s = 173: (0, 39, 93, 14, 26, 11, 20, 20, 60, 10, 12, 0)
s = 174: (0, 55, 117, 9, 43, 14, 27, 13, 63, 7, 10, 0)
s = 175: (0, 26, 83, 9, 34, 14, 25, 20, 56, 6, 17, 0)
s = 176: (0, 37, 90, 15, 27, 18, 36, 25, 89, 12, 19, 0)
s = 177: (0, 37, 99, 13, 18, 12, 28, 14, 74, 11, 19, 0)
s = 178: (0, 31, 116, 12, 25, 14, 41, 24, 65, 8, 16, 0)
s = 179: (0, 32, 96, 16, 30, 16, 32, 21, 69, 11, 16, 0)
s = 180: (0, 49, 149, 10, 24, 14, 24, 18, 71, 7, 14, 0)
s = 181: (0, 26, 143, 20, 30, 9, 29, 20, 80, 9, 15, 0)
s = 182: (0, 43, 61, 15, 37, 15, 21, 23, 57, 8, 19, 0)
s = 183: (0, 40, 62, 10, 45, 10, 21, 20, 93, 14, 15, 0)
s = 184: (0, 53, 81, 14, 21, 19, 47, 14, 52, 7, 13, 0)
s = 185: (0, 38, 89, 8, 24, 16, 29, 22, 63, 10, 17, 0)
s = 186: (0, 32, 66, 11, 17, 14, 25, 28, 86, 8, 14, 0)
s = 187: (0, 47, 71, 15, 21, 15, 35, 15, 95, 9, 21, 0)
s = 188: (0, 37, 87, 12, 41, 17, 24, 15, 45, 12, 23, 0)
s = 189: (0, 49, 93, 12, 36, 24, 46, 11, 95, 14, 24, 0)
s = 190: (0, 64, 95, 18, 25, 13, 35, 26, 80, 8, 24, 0)
s = 191: (0, 44, 75, 9, 40, 9, 35, 29, 100, 7, 26, 0)
s = 192: (0, 30, 77, 10, 28, 17, 23, 32, 49, 7, 18, 0)
s = 193: (0, 46, 156, 15, 34, 11, 42, 24, 96, 6, 23, 0)
s = 194: (0, 38, 65, 12, 42, 17, 38, 14, 85, 7, 20, 0)
s = 195: (0, 51, 104, 13, 21, 11, 26, 24, 69, 11, 18, 0)
s = 196: (0, 59, 66, 7, 18, 20, 41, 21, 60, 8, 19, 0)
s = 197: (0, 54, 77, 12, 24, 11, 39, 19, 56, 10, 17, 0)
s = 198: (0, 62, 101, 13, 25, 19, 27, 27, 102, 8, 15, 0)
s = 199: (0, 32, 103, 15, 25, 12, 54, 10, 127, 6, 20, 0)
s = 200: (0, 28, 58, 18, 39, 14, 22, 29, 71, 11, 16, 0)
------------------------------------------------------------------------
RESOURCE k = 2
s = 1: (0, 13, 8, 10, 8, 9, 23, 9, 27, 8, 8, 0)
s = 2: (0, 12, 13, 9, 12, 11, 12, 13, 26, 8, 8, 0)
s = 3: (0, 12, 12, 7, 14, 6, 23, 7, 30, 12, 11, 0)
s = 4: (0, 25, 8, 5, 11, 18, 9, 12, 61, 11, 12, 0)
s = 5: (0, 25, 15, 12, 11, 9, 13, 12, 22, 7, 15, 0)
s = 6: (0, 17, 8, 9, 7, 9, 17, 7, 34, 9, 8, 0)
s = 7: (0, 19, 8, 9, 9, 6, 21, 9, 37, 7, 12, 0)
s = 8: (0, 28, 10, 12, 9, 12, 19, 10, 34, 9, 16, 0)
s = 9: (0, 22, 9, 10, 13, 13, 17, 7, 28, 10, 6, 0)
s = 10: (0, 23, 11, 7, 8, 9, 22, 13, 32, 7, 8, 0)
s = 11: (0, 12, 9, 8, 12, 8, 25, 8, 21, 11, 7, 0)
s = 12: (0, 16, 9, 7, 11, 14, 15, 16, 44, 6, 14, 0)
s = 13: (0, 24, 6, 11, 11, 6, 15, 9, 36, 14, 7, 0)
s = 14: (0, 21, 10, 8, 9, 8, 23, 12, 27, 7, 12, 0)
s = 15: (0, 23, 15, 9, 14, 8, 16, 16, 34, 12, 7, 0)
s = 16: (0, 20, 9, 9, 6, 7, 17, 15, 61, 10, 18, 0)
s = 17: (0, 14, 17, 9, 18, 11, 16, 7, 39, 8, 11, 0)
s = 18: (0, 24, 7, 9, 16, 9, 27, 8, 22, 14, 8, 0)
s = 19: (0, 17, 11, 8, 10, 7, 24, 8, 28, 6, 12, 0)
s = 20: (0, 19, 13, 7, 7, 11, 12, 9, 25, 8, 11, 0)
s = 21: (0, 17, 13, 8, 8, 8, 15, 16, 29, 11, 6, 0)
s = 22: (0, 12, 11, 7, 11, 13, 10, 12, 51, 11, 9, 0)
s = 23: (0, 14, 15, 9, 16, 11, 12, 12, 49, 9, 8, 0)
s = 24: (0, 16, 8, 6, 8, 7, 22, 6, 30, 6, 14, 0)
s = 25: (0, 16, 10, 11, 9, 10, 20, 13, 36, 11, 6, 0)
s = 26: (0, 14, 7, 7, 11, 15, 10, 13, 27, 10, 10, 0)
s = 27: (0, 16, 9, 11, 11, 10, 11, 11, 31, 11, 10, 0)
s = 28: (0, 11, 9, 8, 15, 13, 18, 12, 37, 6, 12, 0)
s = 29: (0, 17, 9, 14, 10, 11, 13, 6, 45, 7, 7, 0)
s = 30: (0, 22, 14, 15, 11, 11, 16, 8, 33, 12, 12, 0)
s = 31: (0, 15, 8, 10, 10, 5, 20, 8, 57, 6, 8, 0)
s = 32: (0, 17, 10, 12, 10, 13, 22, 6, 30, 12, 9, 0)
s = 33: (0, 14, 12, 11, 13, 9, 15, 9, 41, 9, 9, 0)
s = 34: (0, 12, 9, 7, 11, 14, 27, 8, 40, 7, 11, 0)
s = 35: (0, 17, 9, 8, 12, 14, 11, 8, 25, 7, 11, 0)
s = 36: (0, 24, 16, 9, 10, 11, 11, 9, 36, 12, 12, 0)
s = 37: (0, 20, 12, 9, 8, 8, 12, 12, 34, 10, 8, 0)
s = 38: (0, 29, 8, 12, 6, 7, 14, 7, 35, 5, 10, 0)
s = 39: (0, 21, 15, 13, 6, 9, 15, 12, 30, 5, 11, 0)
s = 40: (0, 14, 8, 9, 12, 7, 16, 7, 32, 9, 10, 0)
s = 41: (0, 23, 9, 11, 13, 8, 20, 14, 38, 14, 11, 0)
s = 42: (0, 23, 16, 9, 10, 9, 23, 10, 21, 8, 10, 0)
s = 43: (0, 32, 9, 5, 13, 11, 18, 8, 43, 9, 10, 0)
s = 44: (0, 13, 8, 11, 12, 8, 14, 11, 47, 8, 13, 0)
s = 45: (0, 21, 12, 11, 9, 14, 19, 11, 27, 7, 8, 0)
s = 46: (0, 21, 11, 11, 10, 7, 26, 8, 27, 15, 12, 0)
s = 47: (0, 13, 13, 13, 12, 10, 16, 8, 35, 12, 14, 0)
s = 48: (0, 21, 6, 7, 13, 15, 12, 16, 42, 8, 13, 0)
s = 49: (0, 16, 9, 17, 16, 9, 18, 12, 35, 10, 13, 0)
s = 50: (0, 22, 9, 10, 9, 12, 24, 13, 23, 9, 13, 0)
s = 51: (0, 25, 9, 7, 7, 14, 19, 11, 20, 8, 12, 0)
s = 52: (0, 21, 13, 13, 8, 10, 15, 14, 25, 8, 12, 0)
s = 53: (0, 27, 9, 7, 10, 9, 10, 10, 43, 10, 13, 0)
s = 54: (0, 14, 14, 6, 16, 9, 19, 10, 25, 11, 6, 0)
s = 55: (0, 20, 14, 12, 8, 9, 21, 10, 37, 13, 10, 0)
s = 56: (0, 22, 7, 11, 16, 11, 25, 13, 30, 8, 11, 0)
s = 57: (0, 19, 14, 12, 15, 12, 13, 8, 28, 11, 12, 0)
s = 58: (0, 23, 9, 8, 8, 13, 15, 11, 43, 12, 10, 0)
s = 59: (0, 12, 10, 10, 9, 8, 13, 11, 46, 12, 9, 0)
s = 60: (0, 17, 11, 7, 9, 11, 10, 11, 33, 8, 13, 0)
s = 61: (0, 24, 8, 9, 7, 8, 27, 16, 34, 8, 14, 0)
s = 62: (0, 12, 11, 9, 6, 10, 24, 19, 50, 8, 9, 0)
s = 63: (0, 13, 12, 8, 12, 10, 14, 12, 26, 9, 15, 0)
s = 64: (0, 13, 11, 6, 17, 10, 11, 8, 22, 7, 9, 0)
s = 65: (0, 17, 9, 7, 8, 12, 16, 7, 42, 15, 14, 0)
s = 66: (0, 17, 6, 12, 8, 9, 27, 6, 43, 9, 7, 0)
s = 67: (0, 12, 14, 14, 9, 11, 17, 12, 35, 9, 9, 0)
s = 68: (0, 12, 12, 9, 8, 6, 11, 7, 31, 8, 10, 0)
s = 69: (0, 29, 12, 10, 13, 9, 14, 9, 48, 11, 10, 0)
s = 70: (0, 22, 7, 9, 12, 9, 14, 11, 30, 10, 15, 0)
s = 71: (0, 17, 9, 12, 7, 14, 30, 7, 25, 10, 10, 0)
s = 72: (0, 27, 7, 9, 13, 9, 15, 9, 38, 11, 8, 0)
s = 73: (0, 19, 9, 8, 9, 11, 23, 12, 59, 10, 12, 0)
s = 74: (0, 29, 12, 8, 11, 8, 16, 14, 59, 9, 7, 0)
s = 75: (0, 16, 9, 10, 9, 14, 19, 9, 50, 8, 12, 0)
s = 76: (0, 13, 12, 6, 10, 11, 16, 13, 21, 11, 8, 0)
s = 77: (0, 16, 11, 15, 8, 15, 11, 9, 22, 12, 16, 0)
s = 78: (0, 14, 6, 9, 11, 12, 12, 7, 49, 5, 12, 0)
s = 79: (0, 29, 8, 12, 6, 9, 20, 15, 21, 8, 11, 0)
s = 80: (0, 21, 7, 9, 12, 16, 20, 10, 34, 13, 10, 0)
s = 81: (0, 15, 11, 10, 11, 7, 18, 6, 25, 10, 11, 0)
s = 82: (0, 12, 8, 12, 9, 8, 21, 8, 27, 14, 12, 0)
s = 83: (0, 12, 8, 10, 8, 6, 19, 7, 26, 7, 10, 0)
s = 84: (0, 15, 7, 8, 11, 15, 12, 11, 50, 15, 12, 0)
s = 85: (0, 27, 9, 13, 6, 14, 15, 12, 34, 7, 11, 0)
s = 86: (0, 15, 10, 8, 10, 10, 15, 16, 41, 16, 12, 0)
s = 87: (0, 21, 11, 10, 10, 7, 15, 11, 22, 6, 8, 0)
s = 88: (0, 12, 8, 6, 9, 12, 21, 10, 39, 17, 9, 0)
s = 89: (0, 15, 12, 8, 10, 7, 13, 9, 22, 10, 13, 0)
s = 90: (0, 12, 11, 9, 8, 8, 26, 7, 43, 8, 10, 0)
s = 91: (0, 20, 8, 6, 12, 11, 20, 12, 37, 6, 6, 0)
s = 92: (0, 24, 11, 8, 10, 8, 11, 11, 36, 8, 16, 0)
s = 93: (0, 34, 8, 9, 9, 9, 19, 10, 38, 17, 10, 0)
s = 94: (0, 20, 9, 10, 10, 10, 16, 15, 30, 11, 9, 0)
s = 95: (0, 21, 10, 9, 10, 10, 14, 8, 39, 10, 10, 0)
s = 96: (0, 18, 12, 15, 13, 7, 12, 10, 24, 11, 8, 0)
s = 97: (0, 19, 8, 9, 11, 9, 12, 15, 48, 11, 7, 0)
s = 98: (0, 27, 8, 6, 18, 12, 14, 11, 29, 7, 7, 0)
s = 99: (0, 20, 11, 7, 15, 7, 12, 12, 47, 5, 11, 0)
s = 100: (0, 16, 9, 6, 10, 6, 19, 9, 34, 12, 9, 0)
s = 101: (0, 18, 10, 9, 14, 16, 14, 7, 42, 8, 14, 0)
s = 102: (0, 18, 12, 8, 8, 9, 27, 6, 23, 10, 8, 0)
s = 103: (0, 20, 18, 10, 8, 12, 14, 8, 26, 6, 13, 0)
s = 104: (0, 18, 6, 10, 15, 11, 17, 16, 49, 9, 8, 0)
s = 105: (0, 16, 12, 7, 9, 8, 13, 8, 33, 8, 12, 0)
s = 106: (0, 13, 13, 7, 10, 9, 17, 12, 29, 13, 14, 0)
s = 107: (0, 18, 9, 10, 8, 11, 13, 9, 45, 7, 11, 0)
s = 108: (0, 14, 8, 10, 6, 6, 13, 10, 25, 7, 14, 0)
s = 109: (0, 13, 8, 9, 10, 7, 17, 14, 44, 9, 14, 0)
s = 110: (0, 17, 12, 13, 7, 10, 20, 16, 24, 7, 12, 0)
s = 111: (0, 18, 8, 8, 11, 12, 16, 11, 25, 8, 15, 0)
s = 112: (0, 17, 11, 16, 8, 6, 16, 16, 23, 6, 11, 0)
s = 113: (0, 15, 7, 13, 10, 13, 23, 10, 50, 9, 9, 0)
s = 114: (0, 13, 10, 15, 10, 7, 21, 12, 27, 14, 9, 0)
s = 115: (0, 18, 12, 9, 11, 7, 22, 15, 33, 11, 13, 0)
s = 116: (0, 15, 14, 7, 7, 6, 14, 15, 29, 9, 13, 0)
s = 117: (0, 11, 11, 8, 17, 14, 12, 7, 24, 12, 11, 0)
s = 118: (0, 16, 14, 8, 10, 11, 11, 9, 31, 6, 11, 0)
s = 119: (0, 20, 8, 12, 6, 11, 26, 10, 30, 7, 9, 0)
s = 120: (0, 11, 12, 12, 8, 8, 14, 9, 41, 10, 14, 0)
s = 121: (0, 20, 10, 8, 7, 8, 10, 6, 37, 8, 17, 0)
s = 122: (0, 21, 9, 7, 10, 10, 15, 11, 31, 5, 15, 0)
s = 123: (0, 17, 10, 8, 19, 8, 18, 12, 27, 8, 12, 0)
s = 124: (0, 24, 12, 10, 9, 9, 16, 8, 39, 9, 7, 0)
s = 125: (0, 12, 8, 11, 9, 9, 13, 15, 34, 16, 8, 0)
s = 126: (0, 21, 9, 10, 12, 9, 9, 10, 41, 9, 13, 0)
s = 127: (0, 17, 12, 9, 11, 8, 15, 11, 53, 7, 7, 0)
s = 128: (0, 11, 9, 14, 9, 7, 20, 9, 50, 15, 6, 0)
s = 129: (0, 18, 11, 9, 10, 8, 13, 6, 35, 12, 13, 0)
s = 130: (0, 16, 20, 14, 11, 8, 12, 11, 39, 7, 11, 0)
s = 131: (0, 26, 11, 6, 8, 10, 12, 6, 51, 15, 11, 0)
s = 132: (0, 15, 12, 10, 9, 8, 17, 11, 28, 11, 6, 0)
s = 133: (0, 19, 12, 11, 8, 8, 10, 10, 38, 12, 11, 0)
s = 134: (0, 21, 8, 10, 9, 7, 21, 12, 29, 8, 12, 0)
s = 135: (0, 15, 12, 13, 11, 10, 10, 7, 30, 13, 8, 0)
s = 136: (0, 15, 8, 11, 13, 12, 20, 7, 58, 17, 8, 0)
s = 137: (0, 19, 14, 10, 8, 7, 22, 8, 24, 11, 12, 0)
s = 138: (0, 15, 13, 7, 6, 9, 16, 11, 37, 6, 15, 0)
s = 139: (0, 19, 8, 15, 13, 11, 13, 15, 54, 7, 10, 0)
s = 140: (0, 18, 14, 9, 10, 9, 21, 8, 41, 9, 8, 0)
s = 141: (0, 12, 7, 5, 7, 8, 22, 10, 45, 7, 13, 0)
s = 142: (0, 15, 10, 8, 11, 10, 19, 11, 27, 13, 8, 0)
s = 143: (0, 17, 14, 7, 8, 8, 13, 11, 25, 15, 10, 0)
s = 144: (0, 17, 8, 9, 13, 10, 20, 18, 35, 8, 11, 0)
s = 145: (0, 15, 8, 12, 6, 6, 15, 10, 27, 8, 11, 0)
s = 146: (0, 26, 14, 9, 15, 6, 12, 7, 37, 11, 9, 0)
s = 147: (0, 11, 11, 7, 9, 6, 15, 7, 26, 11, 14, 0)
s = 148: (0, 21, 9, 10, 12, 7, 17, 10, 33, 12, 7, 0)
s = 149: (0, 28, 10, 7, 11, 11, 24, 13, 44, 11, 12, 0)
s = 150: (0, 13, 9, 12, 9, 16, 18, 12, 25, 9, 15, 0)
s = 151: (0, 20, 12, 5, 11, 15, 20, 8, 50, 5, 12, 0)
s = 152: (0, 14, 11, 8, 14, 9, 26, 9, 36, 7, 6, 0)
s = 153: (0, 13, 8, 9, 7, 11, 18, 11, 22, 7, 10, 0)
s = 154: (0, 32, 13, 9, 15, 8, 20, 11, 44, 7, 7, 0)
s = 155: (0, 31, 6, 12, 7, 6, 15, 7, 40, 14, 11, 0)
s = 156: (0, 25, 6, 7, 11, 9, 18, 8, 29, 8, 7, 0)
s = 157: (0, 11, 8, 9, 6, 9, 15, 11, 33, 10, 9, 0)
s = 158: (0, 18, 10, 13, 11, 6, 12, 9, 52, 13, 10, 0)
s = 159: (0, 21, 13, 14, 12, 8, 14, 11, 37, 9, 9, 0)
s = 160: (0, 12, 6, 7, 12, 8, 17, 7, 30, 9, 13, 0)
s = 161: (0, 17, 10, 8, 14, 10, 14, 7, 32, 10, 9, 0)
s = 162: (0, 24, 9, 10, 10, 9, 21, 12, 25, 8, 6, 0)
s = 163: (0, 12, 16, 7, 10, 12, 13, 6, 26, 11, 8, 0)
s = 164: (0, 18, 11, 8, 8, 10, 28, 9, 40, 8, 8, 0)
s = 165: (0, 19, 9, 11, 12, 7, 21, 14, 30, 8, 15, 0)
s = 166: (0, 13, 14, 11, 8, 10, 10, 10, 34, 11, 8, 0)
s = 167: (0, 17, 11, 8, 12, 7, 19, 15, 32, 7, 16, 0)
s = 168: (0, 17, 8, 8, 18, 9, 18, 9, 37, 7, 8, 0)
s = 169: (0, 16, 8, 6, 11, 7, 10, 10, 40, 7, 14, 0)
s = 170: (0, 19, 8, 11, 7, 6, 10, 7, 54, 6, 10, 0)
s = 171: (0, 21, 11, 7, 8, 14, 17, 10, 35, 15, 7, 0)
s = 172: (0, 25, 10, 6, 10, 9, 16, 18, 25, 8, 10, 0)
s = 173: (0, 18, 11, 11, 9, 7, 10, 11, 28, 10, 7, 0)
s = 174: (0, 26, 13, 7, 15, 8, 14, 8, 30, 7, 6, 0)
s = 175: (0, 12, 10, 7, 12, 9, 13, 12, 26, 6, 9, 0)
s = 176: (0, 17, 10, 12, 9, 11, 18, 14, 42, 12, 11, 0)
s = 177: (0, 17, 11, 10, 6, 8, 14, 8, 35, 11, 11, 0)
s = 178: (0, 15, 13, 9, 9, 9, 21, 13, 31, 8, 9, 0)
s = 179: (0, 15, 11, 12, 10, 10, 16, 12, 32, 11, 9, 0)
s = 180: (0, 23, 17, 8, 8, 9, 12, 10, 33, 7, 8, 0)
s = 181: (0, 12, 16, 15, 10, 6, 15, 12, 38, 9, 8, 0)
s = 182: (0, 20, 7, 12, 13, 9, 11, 13, 27, 8, 11, 0)
s = 183: (0, 19, 7, 8, 15, 6, 11, 12, 44, 14, 9, 0)
s = 184: (0, 25, 9, 11, 7, 12, 24, 8, 25, 7, 7, 0)
s = 185: (0, 18, 10, 6, 8, 10, 15, 12, 30, 10, 10, 0)
s = 186: (0, 15, 8, 8, 6, 9, 13, 16, 40, 8, 8, 0)
s = 187: (0, 22, 8, 12, 7, 9, 18, 8, 45, 9, 12, 0)
s = 188: (0, 17, 10, 9, 14, 10, 12, 8, 21, 12, 13, 0)
s = 189: (0, 23, 11, 9, 12, 15, 23, 7, 45, 14, 14, 0)
s = 190: (0, 30, 11, 13, 9, 8, 18, 15, 37, 8, 14, 0)
s = 191: (0, 20, 9, 7, 14, 6, 18, 17, 47, 7, 15, 0)
s = 192: (0, 14, 9, 8, 10, 10, 12, 18, 23, 7, 10, 0)
s = 193: (0, 21, 18, 11, 12, 7, 21, 13, 45, 6, 13, 0)
s = 194: (0, 18, 8, 9, 14, 11, 19, 8, 40, 7, 11, 0)
s = 195: (0, 24, 12, 10, 7, 7, 13, 13, 32, 11, 10, 0)
s = 196: (0, 27, 8, 5, 6, 12, 21, 12, 28, 8, 11, 0)
s = 197: (0, 25, 9, 9, 8, 7, 20, 11, 26, 10, 10, 0)
s = 198: (0, 29, 12, 10, 9, 12, 14, 15, 48, 8, 9, 0)
s = 199: (0, 15, 12, 11, 9, 8, 27, 6, 60, 6, 11, 0)
s = 200: (0, 13, 7, 13, 13, 9, 11, 16, 33, 11, 9, 0)
------------------------------------------------------------------------
RESOURCE k = 3
s = 1: (0, 17, 28, 6, 8, 9, 51, 15, 27, 5, 13, 0)
s = 2: (0, 16, 44, 5, 12, 11, 27, 22, 26, 5, 13, 0)
s = 3: (0, 16, 40, 4, 14, 6, 52, 11, 30, 7, 19, 0)
s = 4: (0, 34, 26, 3, 11, 18, 19, 20, 61, 6, 20, 0)
s = 5: (0, 33, 50, 7, 11, 9, 28, 21, 22, 4, 26, 0)
s = 6: (0, 23, 27, 5, 7, 9, 37, 13, 34, 5, 15, 0)
s = 7: (0, 25, 26, 5, 9, 6, 46, 15, 37, 4, 21, 0)
s = 8: (0, 38, 34, 7, 9, 12, 41, 17, 34, 5, 29, 0)
s = 9: (0, 29, 31, 6, 13, 13, 38, 13, 28, 6, 11, 0)
s = 10: (0, 30, 37, 4, 8, 9, 49, 24, 32, 4, 14, 0)
s = 11: (0, 16, 31, 5, 12, 8, 55, 14, 21, 6, 13, 0)
s = 12: (0, 21, 29, 4, 11, 14, 34, 28, 44, 3, 25, 0)
s = 13: (0, 32, 20, 6, 11, 6, 33, 15, 36, 8, 13, 0)
s = 14: (0, 28, 35, 5, 9, 8, 51, 21, 27, 4, 22, 0)
s = 15: (0, 30, 52, 5, 14, 8, 35, 29, 34, 7, 11, 0)
s = 16: (0, 26, 32, 5, 6, 7, 38, 26, 61, 6, 31, 0)
s = 17: (0, 19, 59, 5, 18, 11, 36, 12, 39, 5, 19, 0)
s = 18: (0, 32, 23, 5, 16, 9, 61, 14, 22, 8, 14, 0)
s = 19: (0, 23, 38, 5, 10, 7, 54, 14, 28, 3, 20, 0)
s = 20: (0, 25, 46, 4, 7, 11, 26, 16, 25, 5, 19, 0)
s = 21: (0, 23, 44, 5, 8, 8, 32, 29, 29, 6, 11, 0)
s = 22: (0, 16, 38, 4, 11, 13, 21, 21, 51, 6, 15, 0)
s = 23: (0, 19, 53, 5, 16, 11, 27, 22, 49, 5, 14, 0)
s = 24: (0, 22, 27, 4, 8, 7, 50, 11, 30, 4, 26, 0)
s = 25: (0, 21, 32, 7, 9, 10, 44, 23, 36, 6, 11, 0)
s = 26: (0, 18, 24, 4, 11, 15, 23, 23, 27, 6, 17, 0)
s = 27: (0, 21, 29, 6, 11, 10, 25, 19, 31, 6, 18, 0)
s = 28: (0, 15, 29, 4, 15, 13, 40, 22, 37, 4, 21, 0)
s = 29: (0, 22, 30, 8, 10, 11, 28, 11, 45, 4, 13, 0)
s = 30: (0, 29, 46, 8, 11, 11, 36, 14, 33, 7, 21, 0)
s = 31: (0, 20, 28, 6, 10, 5, 44, 14, 57, 3, 14, 0)
s = 32: (0, 22, 33, 7, 10, 13, 49, 11, 30, 7, 16, 0)
s = 33: (0, 18, 39, 6, 13, 9, 33, 16, 41, 5, 15, 0)
s = 34: (0, 16, 31, 4, 11, 14, 60, 14, 40, 4, 19, 0)
s = 35: (0, 22, 29, 5, 12, 14, 24, 14, 25, 4, 19, 0)
s = 36: (0, 32, 54, 5, 10, 11, 23, 15, 36, 7, 21, 0)
s = 37: (0, 26, 40, 5, 8, 8, 27, 22, 34, 6, 13, 0)
s = 38: (0, 38, 26, 7, 6, 7, 32, 12, 35, 3, 17, 0)
s = 39: (0, 28, 51, 8, 6, 9, 33, 22, 30, 3, 20, 0)
s = 40: (0, 19, 27, 5, 12, 7, 35, 13, 32, 5, 18, 0)
s = 41: (0, 31, 31, 7, 13, 8, 45, 25, 38, 8, 19, 0)
s = 42: (0, 30, 56, 5, 10, 9, 51, 18, 21, 5, 18, 0)
s = 43: (0, 42, 31, 3, 13, 11, 39, 14, 43, 5, 17, 0)
s = 44: (0, 17, 28, 7, 12, 8, 30, 19, 47, 5, 23, 0)
s = 45: (0, 28, 42, 6, 9, 14, 43, 19, 27, 4, 14, 0)
s = 46: (0, 27, 37, 7, 10, 7, 59, 14, 27, 8, 21, 0)
s = 47: (0, 18, 44, 7, 12, 10, 36, 14, 35, 7, 26, 0)
s = 48: (0, 27, 20, 4, 13, 15, 25, 28, 42, 5, 23, 0)
s = 49: (0, 21, 29, 10, 16, 9, 39, 22, 35, 6, 24, 0)
s = 50: (0, 29, 30, 6, 9, 12, 54, 23, 23, 5, 23, 0)
s = 51: (0, 33, 31, 4, 7, 14, 43, 20, 20, 5, 22, 0)
s = 52: (0, 28, 43, 7, 8, 10, 33, 25, 25, 5, 21, 0)
s = 53: (0, 36, 30, 4, 10, 9, 21, 18, 43, 6, 23, 0)
s = 54: (0, 18, 49, 4, 16, 9, 43, 18, 25, 6, 11, 0)
s = 55: (0, 27, 48, 7, 8, 9, 46, 17, 37, 7, 18, 0)
s = 56: (0, 30, 25, 6, 16, 11, 55, 22, 30, 4, 19, 0)
s = 57: (0, 25, 49, 7, 15, 12, 28, 14, 28, 6, 20, 0)
s = 58: (0, 30, 30, 4, 8, 13, 33, 19, 43, 7, 17, 0)
s = 59: (0, 16, 34, 6, 9, 8, 28, 19, 46, 7, 16, 0)
s = 60: (0, 22, 36, 4, 9, 11, 22, 20, 33, 5, 23, 0)
s = 61: (0, 32, 26, 5, 7, 8, 59, 28, 34, 5, 25, 0)
s = 62: (0, 16, 38, 5, 6, 10, 54, 34, 50, 5, 15, 0)
s = 63: (0, 17, 40, 5, 12, 10, 30, 21, 26, 5, 26, 0)
s = 64: (0, 17, 37, 4, 17, 10, 24, 15, 22, 4, 16, 0)
s = 65: (0, 23, 30, 4, 8, 12, 35, 11, 42, 9, 25, 0)
s = 66: (0, 23, 19, 7, 8, 9, 59, 10, 43, 5, 12, 0)
s = 67: (0, 16, 47, 8, 9, 11, 37, 22, 35, 5, 17, 0)
s = 68: (0, 16, 42, 5, 8, 6, 23, 12, 31, 5, 18, 0)
s = 69: (0, 39, 41, 6, 13, 9, 31, 17, 48, 6, 18, 0)
s = 70: (0, 29, 24, 5, 12, 9, 31, 20, 30, 6, 26, 0)
s = 71: (0, 23, 31, 7, 7, 14, 66, 11, 25, 6, 18, 0)
s = 72: (0, 36, 23, 5, 13, 9, 32, 16, 38, 7, 14, 0)
s = 73: (0, 25, 30, 5, 9, 11, 51, 20, 59, 6, 21, 0)
s = 74: (0, 38, 40, 5, 11, 8, 36, 25, 59, 5, 13, 0)
s = 75: (0, 21, 32, 6, 9, 14, 42, 17, 50, 5, 21, 0)
s = 76: (0, 17, 40, 4, 10, 11, 36, 24, 21, 6, 14, 0)
s = 77: (0, 21, 37, 8, 8, 15, 25, 17, 22, 7, 28, 0)
s = 78: (0, 19, 20, 5, 11, 12, 25, 13, 49, 3, 22, 0)
s = 79: (0, 38, 28, 7, 6, 9, 44, 26, 21, 5, 20, 0)
s = 80: (0, 28, 24, 5, 12, 16, 45, 17, 34, 8, 18, 0)
s = 81: (0, 20, 38, 6, 11, 7, 39, 11, 25, 6, 19, 0)
s = 82: (0, 16, 28, 7, 9, 8, 47, 14, 27, 8, 21, 0)
s = 83: (0, 16, 26, 6, 8, 6, 43, 13, 26, 4, 17, 0)
s = 84: (0, 20, 24, 5, 11, 15, 27, 20, 50, 9, 22, 0)
s = 85: (0, 36, 30, 8, 6, 14, 33, 20, 34, 4, 19, 0)
s = 86: (0, 20, 32, 5, 10, 10, 33, 28, 41, 9, 21, 0)
s = 87: (0, 27, 36, 6, 10, 7, 32, 20, 22, 4, 15, 0)
s = 88: (0, 16, 27, 4, 9, 12, 46, 18, 39, 10, 17, 0)
s = 89: (0, 20, 42, 5, 10, 7, 28, 16, 22, 6, 23, 0)
s = 90: (0, 16, 38, 5, 8, 8, 59, 13, 43, 5, 18, 0)
s = 91: (0, 26, 28, 4, 12, 11, 44, 22, 37, 4, 10, 0)
s = 92: (0, 32, 37, 5, 10, 8, 24, 20, 36, 5, 28, 0)
s = 93: (0, 45, 25, 5, 9, 9, 43, 17, 38, 9, 18, 0)
s = 94: (0, 27, 30, 6, 10, 10, 36, 27, 30, 6, 16, 0)
s = 95: (0, 28, 34, 5, 10, 10, 30, 15, 39, 6, 17, 0)
s = 96: (0, 24, 42, 9, 13, 7, 27, 18, 24, 6, 14, 0)
s = 97: (0, 25, 28, 5, 11, 9, 26, 27, 48, 6, 13, 0)
s = 98: (0, 36, 28, 4, 18, 12, 31, 19, 29, 4, 13, 0)
s = 99: (0, 27, 37, 4, 15, 7, 25, 21, 47, 3, 20, 0)
s = 100: (0, 22, 30, 3, 10, 6, 42, 17, 34, 7, 15, 0)
s = 101: (0, 24, 32, 5, 14, 16, 31, 12, 42, 5, 24, 0)
s = 102: (0, 24, 40, 5, 8, 9, 60, 10, 23, 6, 15, 0)
s = 103: (0, 27, 60, 6, 8, 12, 31, 13, 26, 4, 24, 0)
s = 104: (0, 24, 21, 6, 15, 11, 38, 28, 49, 5, 15, 0)
s = 105: (0, 21, 40, 4, 9, 8, 29, 14, 33, 5, 22, 0)
s = 106: (0, 17, 46, 4, 10, 9, 38, 21, 29, 8, 25, 0)
s = 107: (0, 23, 29, 6, 8, 11, 29, 16, 45, 4, 20, 0)
s = 108: (0, 19, 26, 6, 6, 6, 28, 17, 25, 4, 24, 0)
s = 109: (0, 17, 26, 5, 10, 7, 37, 25, 44, 5, 26, 0)
s = 110: (0, 22, 39, 8, 7, 10, 45, 29, 24, 4, 20, 0)
s = 111: (0, 24, 25, 5, 11, 12, 35, 20, 25, 4, 26, 0)
s = 112: (0, 22, 38, 9, 8, 6, 35, 29, 23, 3, 20, 0)
s = 113: (0, 20, 24, 7, 10, 13, 51, 17, 50, 5, 16, 0)
s = 114: (0, 17, 34, 8, 10, 7, 46, 21, 27, 8, 17, 0)
s = 115: (0, 24, 42, 5, 11, 7, 48, 27, 33, 6, 24, 0)
s = 116: (0, 20, 49, 4, 7, 6, 30, 27, 29, 5, 22, 0)
s = 117: (0, 15, 38, 5, 17, 14, 25, 13, 24, 7, 19, 0)
s = 118: (0, 21, 47, 4, 10, 11, 23, 16, 31, 3, 19, 0)
s = 119: (0, 26, 28, 7, 6, 11, 59, 18, 30, 4, 16, 0)
s = 120: (0, 14, 42, 7, 8, 8, 31, 15, 41, 6, 25, 0)
s = 121: (0, 26, 32, 4, 7, 8, 21, 10, 37, 5, 31, 0)
s = 122: (0, 28, 32, 4, 10, 10, 32, 19, 31, 3, 27, 0)
s = 123: (0, 22, 35, 5, 19, 8, 41, 21, 27, 5, 20, 0)
s = 124: (0, 32, 42, 6, 9, 9, 36, 13, 39, 5, 13, 0)
s = 125: (0, 16, 28, 6, 9, 9, 29, 26, 34, 9, 15, 0)
s = 126: (0, 27, 32, 6, 12, 9, 20, 18, 41, 5, 24, 0)
s = 127: (0, 22, 42, 5, 11, 8, 33, 19, 53, 4, 12, 0)
s = 128: (0, 14, 29, 8, 9, 7, 44, 16, 50, 8, 10, 0)
s = 129: (0, 24, 36, 5, 10, 8, 28, 10, 35, 7, 22, 0)
s = 130: (0, 21, 69, 8, 11, 8, 27, 20, 39, 4, 19, 0)
s = 131: (0, 35, 37, 4, 8, 10, 27, 11, 51, 8, 19, 0)
s = 132: (0, 19, 41, 6, 9, 8, 37, 20, 28, 6, 11, 0)
s = 133: (0, 25, 40, 6, 8, 8, 21, 18, 38, 7, 20, 0)
s = 134: (0, 28, 27, 6, 9, 7, 47, 21, 29, 5, 21, 0)
s = 135: (0, 19, 41, 7, 11, 10, 21, 11, 30, 7, 14, 0)
s = 136: (0, 20, 27, 7, 13, 12, 44, 12, 58, 9, 15, 0)
s = 137: (0, 25, 48, 6, 8, 7, 50, 13, 24, 6, 22, 0)
s = 138: (0, 20, 44, 4, 6, 9, 35, 19, 37, 4, 26, 0)
s = 139: (0, 25, 28, 9, 13, 11, 28, 27, 54, 4, 17, 0)
s = 140: (0, 24, 47, 5, 10, 9, 46, 14, 41, 5, 14, 0)
s = 141: (0, 16, 25, 3, 7, 8, 50, 18, 45, 4, 24, 0)
s = 142: (0, 20, 34, 5, 11, 10, 41, 19, 27, 8, 14, 0)
s = 143: (0, 23, 49, 4, 8, 8, 29, 20, 25, 9, 17, 0)
s = 144: (0, 23, 26, 5, 13, 10, 44, 32, 35, 5, 19, 0)
s = 145: (0, 19, 26, 7, 6, 6, 33, 18, 27, 5, 19, 0)
s = 146: (0, 35, 49, 5, 15, 6, 26, 11, 37, 6, 16, 0)
s = 147: (0, 14, 38, 4, 9, 6, 34, 13, 26, 6, 26, 0)
s = 148: (0, 28, 31, 6, 12, 7, 38, 17, 33, 7, 13, 0)
s = 149: (0, 37, 34, 4, 11, 11, 53, 23, 44, 7, 21, 0)
s = 150: (0, 17, 30, 7, 9, 16, 40, 21, 25, 5, 27, 0)
s = 151: (0, 26, 42, 3, 11, 15, 44, 14, 50, 3, 21, 0)
s = 152: (0, 19, 38, 4, 14, 9, 58, 17, 36, 4, 11, 0)
s = 153: (0, 18, 26, 5, 7, 11, 41, 20, 22, 4, 18, 0)
s = 154: (0, 42, 44, 5, 15, 8, 43, 20, 44, 4, 12, 0)
s = 155: (0, 41, 20, 7, 7, 6, 34, 12, 40, 8, 20, 0)
s = 156: (0, 33, 18, 4, 11, 9, 40, 14, 29, 5, 13, 0)
s = 157: (0, 14, 26, 5, 6, 9, 34, 20, 33, 6, 16, 0)
s = 158: (0, 24, 33, 7, 11, 6, 27, 16, 52, 8, 18, 0)
s = 159: (0, 28, 45, 8, 12, 8, 30, 19, 37, 5, 16, 0)
s = 160: (0, 16, 19, 4, 12, 8, 38, 13, 30, 5, 23, 0)
s = 161: (0, 22, 35, 5, 14, 10, 32, 13, 32, 6, 15, 0)
s = 162: (0, 31, 30, 6, 10, 9, 46, 20, 25, 4, 10, 0)
s = 163: (0, 16, 56, 4, 10, 12, 29, 11, 26, 6, 13, 0)
s = 164: (0, 24, 38, 4, 8, 10, 61, 17, 40, 5, 15, 0)
s = 165: (0, 26, 30, 6, 12, 7, 46, 25, 30, 5, 27, 0)
s = 166: (0, 18, 49, 6, 8, 10, 21, 17, 34, 7, 14, 0)
s = 167: (0, 22, 36, 5, 12, 7, 43, 26, 32, 4, 29, 0)
s = 168: (0, 22, 28, 5, 18, 9, 40, 16, 37, 4, 15, 0)
s = 169: (0, 21, 26, 4, 11, 7, 22, 18, 40, 4, 25, 0)
s = 170: (0, 25, 27, 6, 7, 6, 22, 12, 54, 4, 17, 0)
s = 171: (0, 28, 36, 4, 8, 14, 37, 17, 35, 9, 12, 0)
s = 172: (0, 33, 33, 4, 10, 9, 36, 32, 25, 5, 17, 0)
s = 173: (0, 24, 36, 6, 9, 7, 22, 20, 28, 6, 12, 0)
s = 174: (0, 34, 46, 4, 15, 8, 30, 13, 30, 4, 10, 0)
s = 175: (0, 16, 32, 4, 12, 9, 28, 20, 26, 4, 17, 0)
s = 176: (0, 23, 35, 7, 9, 11, 41, 25, 42, 7, 19, 0)
s = 177: (0, 23, 39, 6, 6, 8, 32, 14, 35, 6, 19, 0)
s = 178: (0, 19, 45, 5, 9, 9, 46, 24, 31, 4, 16, 0)
s = 179: (0, 20, 38, 7, 10, 10, 36, 21, 32, 6, 16, 0)
s = 180: (0, 30, 58, 4, 8, 9, 27, 18, 33, 4, 14, 0)
s = 181: (0, 16, 56, 8, 10, 6, 33, 20, 38, 5, 15, 0)
s = 182: (0, 27, 24, 7, 13, 9, 24, 23, 27, 5, 19, 0)
s = 183: (0, 25, 24, 5, 15, 6, 23, 20, 44, 8, 15, 0)
s = 184: (0, 33, 32, 6, 7, 12, 53, 14, 25, 4, 13, 0)
s = 185: (0, 24, 35, 3, 8, 10, 33, 22, 30, 6, 17, 0)
s = 186: (0, 20, 26, 5, 6, 9, 28, 28, 40, 4, 14, 0)
s = 187: (0, 29, 28, 7, 7, 9, 39, 15, 45, 5, 21, 0)
s = 188: (0, 23, 34, 5, 14, 10, 27, 15, 21, 7, 23, 0)
s = 189: (0, 31, 36, 5, 12, 15, 52, 11, 45, 8, 24, 0)
s = 190: (0, 40, 37, 8, 9, 8, 40, 26, 37, 5, 24, 0)
s = 191: (0, 27, 30, 4, 14, 6, 39, 29, 47, 4, 26, 0)
s = 192: (0, 18, 30, 5, 10, 10, 26, 32, 23, 4, 18, 0)
s = 193: (0, 28, 61, 6, 12, 7, 48, 24, 45, 4, 23, 0)
s = 194: (0, 24, 25, 5, 14, 11, 43, 14, 40, 4, 20, 0)
s = 195: (0, 31, 41, 6, 7, 7, 29, 24, 32, 6, 18, 0)
s = 196: (0, 36, 26, 3, 6, 12, 46, 21, 28, 5, 19, 0)
s = 197: (0, 34, 30, 5, 8, 7, 44, 19, 26, 6, 17, 0)
s = 198: (0, 38, 40, 6, 9, 12, 30, 27, 48, 5, 15, 0)
s = 199: (0, 20, 41, 6, 9, 8, 60, 10, 60, 3, 20, 0)
s = 200: (0, 17, 23, 8, 13, 9, 25, 29, 33, 6, 16, 0)
************************************************************************
ES/LS-VALUES:
jobnr.   ES(i)    LS(i)
------------------------------------------------------------------------
  0        0        0
  1        0       58
  2        0       63
  3        0       71
  4        5       75
  5       10       73
  6        5       64
  7       12       75
  8       12       72
  9       15       79
 10       12       77
 11       20       81
************************************************************************
BIG-M-VALUES:
M1 = 56, M2 = 284
************************************************************************
